c FILE /home/rafael/Documents/HappySet/MIHS/inputs/happygen/output/graph_d_regular_k2_p0.4_v100_20241127_084001.txt
c SOURCE This is a d-regular graph formed for the happy graph colouring problem.
c DESCRIPTION It was generated using the problem generator of Rhyd Lewis
c
c GRAPH STATS
c Seed                             = 336480904
c Number of Nodes                  = 100
c Number of colours k              = 2
c Number of pre-assignments        = 40
c Degree of all vertices           = 6
c Density                          = 0.0606061
c 
c The degrees of nodes 1 to 100, respectively, are as follows 
c [6, 6, 6, 6, 6, 6, 6, 6, 6, 6, 6, 6, 6, 6, 6, 6, 6, 6, 6, 6, 6, 6, 6, 6, 6, 6, 
c  6, 6, 6, 6, 6, 6, 6, 6, 6, 6, 6, 6, 6, 6, 6, 6, 6, 6, 6, 6, 6, 6, 6, 6, 6, 
c  6, 6, 6, 6, 6, 6, 6, 6, 6, 6, 6, 6, 6, 6, 6, 6, 6, 6, 6, 6, 6, 6, 6, 6, 6, 
c  6, 6, 6, 6, 6, 6, 6, 6, 6, 6, 6, 6, 6, 6, 6, 6, 6, 6, 6, 6, 6, 6, 6, 6] 
c  
p edge 100 300 2
e 1 8
e 1 15
e 1 19
e 1 25
e 1 37
e 1 68
e 2 40
e 2 68
e 2 69
e 2 80
e 2 87
e 2 93
e 3 20
e 3 25
e 3 26
e 3 42
e 3 77
e 3 98
e 4 10
e 4 21
e 4 24
e 4 39
e 4 41
e 4 89
e 5 32
e 5 62
e 5 75
e 5 85
e 5 88
e 5 95
e 6 15
e 6 56
e 6 57
e 6 79
e 6 84
e 6 96
e 7 20
e 7 34
e 7 53
e 7 67
e 7 90
e 7 98
e 8 30
e 8 42
e 8 58
e 8 67
e 8 94
e 9 38
e 9 44
e 9 72
e 9 79
e 9 88
e 9 89
e 10 23
e 10 33
e 10 63
e 10 80
e 10 92
e 11 15
e 11 21
e 11 31
e 11 47
e 11 57
e 11 100
e 12 13
e 12 45
e 12 52
e 12 64
e 12 68
e 12 88
e 13 29
e 13 57
e 13 74
e 13 85
e 13 86
e 14 19
e 14 24
e 14 52
e 14 54
e 14 62
e 14 76
e 15 29
e 15 90
e 15 99
e 16 18
e 16 27
e 16 32
e 16 42
e 16 44
e 16 94
e 17 20
e 17 35
e 17 40
e 17 45
e 17 58
e 17 83
e 18 29
e 18 46
e 18 61
e 18 93
e 18 95
e 19 41
e 19 58
e 19 64
e 19 69
e 20 61
e 20 86
e 20 99
e 21 47
e 21 48
e 21 72
e 21 80
e 22 44
e 22 45
e 22 46
e 22 50
e 22 54
e 22 74
e 23 28
e 23 90
e 23 92
e 23 93
e 23 97
e 24 26
e 24 80
e 24 83
e 24 88
e 25 29
e 25 39
e 25 70
e 25 83
e 26 52
e 26 60
e 26 65
e 26 73
e 27 32
e 27 50
e 27 61
e 27 73
e 27 80
e 28 43
e 28 49
e 28 74
e 28 81
e 28 98
e 29 31
e 29 65
e 30 51
e 30 54
e 30 73
e 30 82
e 30 84
e 31 37
e 31 38
e 31 54
e 31 57
e 32 76
e 32 85
e 32 90
e 33 44
e 33 46
e 33 55
e 33 57
e 33 100
e 34 59
e 34 63
e 34 80
e 34 84
e 34 92
e 35 36
e 35 44
e 35 58
e 35 75
e 35 96
e 36 55
e 36 59
e 36 66
e 36 67
e 36 77
e 37 41
e 37 48
e 37 77
e 37 85
e 38 58
e 38 72
e 38 81
e 38 83
e 39 43
e 39 48
e 39 63
e 39 77
e 40 49
e 40 68
e 40 86
e 40 94
e 41 53
e 41 90
e 41 93
e 42 43
e 42 55
e 42 97
e 43 75
e 43 99
e 43 100
e 44 100
e 45 78
e 45 94
e 45 96
e 46 60
e 46 63
e 46 82
e 47 52
e 47 53
e 47 97
e 47 98
e 48 51
e 48 78
e 48 100
e 49 66
e 49 71
e 49 76
e 49 92
e 50 51
e 50 53
e 50 66
e 50 94
e 51 69
e 51 79
e 51 87
e 52 63
e 52 95
e 53 82
e 53 92
e 54 71
e 54 77
e 55 60
e 55 69
e 55 95
e 56 61
e 56 72
e 56 74
e 56 86
e 56 96
e 57 79
e 58 97
e 59 69
e 59 78
e 59 82
e 59 84
e 60 64
e 60 98
e 60 99
e 61 76
e 61 78
e 62 66
e 62 68
e 62 75
e 62 100
e 63 81
e 64 86
e 64 92
e 64 98
e 65 81
e 65 87
e 65 93
e 65 95
e 66 87
e 66 90
e 67 70
e 67 77
e 67 91
e 68 85
e 69 83
e 70 78
e 70 89
e 70 91
e 70 97
e 71 73
e 71 75
e 71 78
e 71 84
e 72 75
e 72 82
e 73 83
e 73 88
e 74 79
e 74 97
e 76 89
e 76 91
e 79 89
e 81 88
e 81 91
e 82 96
e 84 86
e 85 87
e 87 89
e 91 96
e 91 99
e 93 99
e 94 95
n 1 1
n 4 1
n 6 2
n 7 2
n 9 1
n 10 1
n 11 1
n 18 1
n 21 1
n 24 1
n 26 1
n 30 1
n 31 1
n 36 2
n 38 1
n 44 1
n 45 2
n 47 1
n 49 2
n 50 2
n 55 2
n 61 1
n 63 1
n 64 2
n 66 2
n 70 1
n 72 1
n 74 2
n 75 1
n 77 2
n 80 1
n 81 1
n 82 1
n 85 1
n 88 1
n 89 1
n 90 2
n 93 1
n 99 1
n 100 1
